p cnf 126 464
c p weight 10 -1 0
c p weight -10 1 0
c p weight 12 6.12323399573676603586882014729198302312846062338790031898128063403419218957424163818359375E-17 0
c p weight -12 1 0
c p weight 13 1 0
c p weight -13 1 0
c p weight 14 -1 0
c p weight -14 1 0
c p weight 16 -1 0
c p weight -16 1 0
c p weight 18 -1 0
c p weight -18 1 0
c p weight 20 6.12323399573676603586882014729198302312846062338790031898128063403419218957424163818359375E-17 0
c p weight -20 1 0
c p weight 21 1 0
c p weight -21 1 0
c p weight 22 -1 0
c p weight -22 1 0
c p weight 24 -1 0
c p weight -24 1 0
c p weight 26 0.70710678118654752440084436210485 0
c p weight -26 1 0
c p weight 27 -1 0
c p weight -27 1 0
c p weight 29 -1 0
c p weight -29 1 0
c p weight 31 6.12323399573676603586882014729198302312846062338790031898128063403419218957424163818359375E-17 0
c p weight -31 1 0
c p weight 32 1 0
c p weight -32 1 0
c p weight 33 -1 0
c p weight -33 1 0
c p weight 35 -1 0
c p weight -35 1 0
c p weight 36 -1 0
c p weight -36 1 0
c p weight 38 -1 0
c p weight -38 1 0
c p weight 41 -1 0
c p weight -41 1 0
c p weight 43 -1 0
c p weight -43 1 0
c p weight 46 -1 0
c p weight -46 1 0
c p weight 48 -1 0
c p weight -48 1 0
c p weight 51 -1 0
c p weight -51 1 0
c p weight 54 -1 0
c p weight -54 1 0
c p weight 57 -1 0
c p weight -57 1 0
c p weight 59 -1 0
c p weight -59 1 0
c p weight 61 6.12323399573676603586882014729198302312846062338790031898128063403419218957424163818359375E-17 0
c p weight -61 1 0
c p weight 62 1 0
c p weight -62 1 0
c p weight 63 -1 0
c p weight -63 1 0
c p weight 65 -1 0
c p weight -65 1 0
c p weight 68 -1 0
c p weight -68 1 0
c p weight 70 0.70710678118654752440084436210485 0
c p weight -70 1 0
c p weight 71 -1 0
c p weight -71 1 0
c p weight 74 -1 0
c p weight -74 1 0
c p weight 76 0.70710678118654752440084436210485 0
c p weight -76 1 0
c p weight 77 -1 0
c p weight -77 1 0
c p weight 79 -1 0
c p weight -79 1 0
c p weight 81 6.12323399573676603586882014729198302312846062338790031898128063403419218957424163818359375E-17 0
c p weight -81 1 0
c p weight 82 1 0
c p weight -82 1 0
c p weight 83 -1 0
c p weight -83 1 0
c p weight 85 -1 0
c p weight -85 1 0
c p weight 87 0.9238795325112867384831361050601117312908172607421875 0
c p weight -87 1 0
c p weight 88 -0.382683432365089781779232680491986684501171112060546875 0
c p weight -88 1 0
c p weight 89 -1 0
c p weight -89 1 0
c p weight 92 -1 0
c p weight -92 1 0
c p weight 94 0.9238795325112867384831361050601117312908172607421875 0
c p weight -94 1 0
c p weight 95 0.382683432365089781779232680491986684501171112060546875 0
c p weight -95 1 0
c p weight 96 -1 0
c p weight -96 1 0
c p weight 99 -1 0
c p weight -99 1 0
c p weight 101 0.9238795325112867384831361050601117312908172607421875 0
c p weight -101 1 0
c p weight 102 -0.382683432365089781779232680491986684501171112060546875 0
c p weight -102 1 0
c p weight 103 -1 0
c p weight -103 1 0
c p weight 105 0.70710678118654752440084436210485 0
c p weight -105 1 0
c p weight 106 -1 0
c p weight -106 1 0
c p weight 109 -1 0
c p weight -109 1 0
c p weight 111 0.70710678118654752440084436210485 0
c p weight -111 1 0
c p weight 112 -1 0
c p weight -112 1 0
c p weight 115 -1 0
c p weight -115 1 0
c p weight 117 0.70710678118654752440084436210485 0
c p weight -117 1 0
c p weight 118 -1 0
c p weight -118 1 0
c p weight 120 -1 0
c p weight -120 1 0
c p weight 122 6.12323399573676603586882014729198302312846062338790031898128063403419218957424163818359375E-17 0
c p weight -122 1 0
c p weight 123 1 0
c p weight -123 1 0
c p weight 124 -1 0
c p weight -124 1 0
c p weight 126 -1 0
c p weight -126 1 0
-7 0
-5 0
-3 0
-1 0
9 1 -2 0
9 -1 2 0
-9 1 2 0
-9 -1 -2 0
-10 1 0
-10 2 0
10 -1 -2 0
11 -1 9 0
-11 1 9 0
-12 9 0
11 -12 -1 0
-11 -12 1 0
11 12 1 -9 0
-11 12 -1 -9 0
-13 9 0
11 -13 1 0
-11 -13 -1 0
11 13 -1 -9 0
-11 13 1 -9 0
-14 11 0
-14 9 0
-14 -1 0
14 -11 1 -9 0
15 11 -9 0
15 -11 9 0
-15 11 9 0
-15 -11 -9 0
-16 11 0
-16 9 0
16 -11 -9 0
17 3 -4 0
17 -3 4 0
-17 3 4 0
-17 -3 -4 0
-18 3 0
-18 4 0
18 -3 -4 0
19 -3 17 0
-19 3 17 0
-20 17 0
19 -20 -3 0
-19 -20 3 0
19 20 3 -17 0
-19 20 -3 -17 0
-21 17 0
19 -21 3 0
-19 -21 -3 0
19 21 -3 -17 0
-19 21 3 -17 0
-22 19 0
-22 17 0
-22 -3 0
22 -19 3 -17 0
23 19 -17 0
23 -19 17 0
-23 19 17 0
-23 -19 -17 0
-24 19 0
-24 17 0
24 -19 -17 0
25 19 -23 0
-25 19 23 0
26 -19 0
-26 19 0
-27 25 0
-27 19 0
-27 -23 0
27 -25 -19 23 0
28 5 -6 0
28 -5 6 0
-28 5 6 0
-28 -5 -6 0
-29 5 0
-29 6 0
29 -5 -6 0
30 -5 28 0
-30 5 28 0
-31 28 0
30 -31 -5 0
-30 -31 5 0
30 31 5 -28 0
-30 31 -5 -28 0
-32 28 0
30 -32 5 0
-30 -32 -5 0
30 32 -5 -28 0
-30 32 5 -28 0
-33 30 0
-33 28 0
-33 -5 0
33 -30 5 -28 0
34 30 -28 0
34 -30 28 0
-34 30 28 0
-34 -30 -28 0
-35 30 0
-35 28 0
35 -30 -28 0
36 -8 0
-36 8 0
37 7 -8 0
37 -7 8 0
-37 7 8 0
-37 -7 -8 0
-38 7 0
-38 8 0
38 -7 -8 0
39 7 -11 0
39 -7 11 0
-39 7 11 0
-39 -7 -11 0
40 37 -15 0
40 -37 15 0
-40 37 15 0
-40 -37 -15 0
-41 7 0
-41 15 0
-41 11 -37 0
-41 -11 37 0
41 -7 11 37 -15 0
41 -7 -11 -37 -15 0
42 39 -15 0
42 -39 15 0
-42 39 15 0
-42 -39 -15 0
-43 39 0
-43 -15 0
43 -39 15 0
44 7 -39 0
44 -7 39 0
-44 7 39 0
-44 -7 -39 0
45 40 -42 0
45 -40 42 0
-45 40 42 0
-45 -40 -42 0
-46 7 0
-46 42 0
-46 39 -40 0
-46 -39 40 0
46 -7 39 40 -42 0
46 -7 -39 -40 -42 0
47 44 -42 0
47 -44 42 0
-47 44 42 0
-47 -44 -42 0
-48 44 0
-48 42 0
48 -44 -42 0
49 44 -30 0
49 -44 30 0
-49 44 30 0
-49 -44 -30 0
50 47 -34 0
50 -47 34 0
-50 47 34 0
-50 -47 -34 0
-51 44 0
-51 34 0
-51 30 -47 0
-51 -30 47 0
51 -44 30 47 -34 0
51 -44 -30 -47 -34 0
52 49 -44 0
52 -49 44 0
-52 49 44 0
-52 -49 -44 0
53 34 -50 0
53 -34 50 0
-53 34 50 0
-53 -34 -50 0
-54 49 0
-54 50 0
-54 44 -34 0
-54 -44 34 0
54 -49 44 34 -50 0
54 -49 -44 -34 -50 0
55 52 -49 0
55 -52 49 0
-55 52 49 0
-55 -52 -49 0
56 50 -53 0
56 -50 53 0
-56 50 53 0
-56 -50 -53 0
-57 52 0
-57 53 0
-57 49 -50 0
-57 -49 50 0
57 -52 49 50 -53 0
57 -52 -49 -50 -53 0
58 52 -56 0
58 -52 56 0
-58 52 56 0
-58 -52 -56 0
-59 52 0
-59 56 0
59 -52 -56 0
60 -52 58 0
-60 52 58 0
-61 58 0
60 -61 -52 0
-60 -61 52 0
60 61 52 -58 0
-60 61 -52 -58 0
-62 58 0
60 -62 52 0
-60 -62 -52 0
60 62 -52 -58 0
-60 62 52 -58 0
-63 60 0
-63 58 0
-63 -52 0
63 -60 52 -58 0
64 60 -58 0
64 -60 58 0
-64 60 58 0
-64 -60 -58 0
-65 60 0
-65 58 0
65 -60 -58 0
66 19 -60 0
66 -19 60 0
-66 19 60 0
-66 -19 -60 0
67 25 -64 0
67 -25 64 0
-67 25 64 0
-67 -25 -64 0
-68 19 0
-68 64 0
-68 60 -25 0
-68 -60 25 0
68 -19 60 25 -64 0
68 -19 -60 -25 -64 0
69 66 -64 0
-69 66 64 0
70 -66 0
-70 66 0
-71 66 0
-71 64 0
-71 -69 0
71 69 -66 -64 0
72 19 -66 0
72 -19 66 0
-72 19 66 0
-72 -19 -66 0
73 67 -69 0
73 -67 69 0
-73 67 69 0
-73 -67 -69 0
-74 19 0
-74 69 0
-74 66 -67 0
-74 -66 67 0
74 -19 66 67 -69 0
74 -19 -66 -67 -69 0
75 72 -69 0
-75 72 69 0
76 -72 0
-76 72 0
-77 75 0
-77 72 0
-77 -69 0
77 -75 -72 69 0
78 19 -73 0
78 -19 73 0
-78 19 73 0
-78 -19 -73 0
-79 19 0
-79 73 0
79 -19 -73 0
80 -19 78 0
-80 19 78 0
-81 78 0
80 -81 -19 0
-80 -81 19 0
80 81 19 -78 0
-80 81 -19 -78 0
-82 78 0
80 -82 19 0
-80 -82 -19 0
80 82 -19 -78 0
-80 82 19 -78 0
-83 80 0
-83 78 0
-83 -19 0
83 -80 19 -78 0
84 80 -78 0
84 -80 78 0
-84 80 78 0
-84 -80 -78 0
-85 80 0
-85 78 0
85 -80 -78 0
86 55 -53 0
-86 55 53 0
-87 55 0
86 -87 -53 0
-86 -87 53 0
86 87 -55 53 0
-86 87 -55 -53 0
-88 55 0
86 -88 53 0
-86 -88 -53 0
86 88 -55 -53 0
-86 88 -55 53 0
-89 55 0
-89 53 0
-89 -86 0
89 86 -55 -53 0
90 55 -72 0
90 -55 72 0
-90 55 72 0
-90 -55 -72 0
91 86 -75 0
91 -86 75 0
-91 86 75 0
-91 -86 -75 0
-92 55 0
-92 75 0
-92 72 -86 0
-92 -72 86 0
92 -55 72 86 -75 0
92 -55 -72 -86 -75 0
93 90 -75 0
-93 90 75 0
-94 90 0
93 -94 -75 0
-93 -94 75 0
93 94 -90 75 0
-93 94 -90 -75 0
-95 90 0
93 -95 75 0
-93 -95 -75 0
93 95 -90 -75 0
-93 95 -90 75 0
-96 90 0
-96 75 0
-96 -93 0
96 93 -90 -75 0
97 55 -90 0
97 -55 90 0
-97 55 90 0
-97 -55 -90 0
98 91 -93 0
98 -91 93 0
-98 91 93 0
-98 -91 -93 0
-99 55 0
-99 93 0
-99 90 -91 0
-99 -90 91 0
99 -55 90 91 -93 0
99 -55 -90 -91 -93 0
100 97 -93 0
-100 97 93 0
-101 97 0
100 -101 -93 0
-100 -101 93 0
100 101 -97 93 0
-100 101 -97 -93 0
-102 97 0
100 -102 93 0
-100 -102 -93 0
100 102 -97 -93 0
-100 102 -97 93 0
-103 97 0
-103 93 0
-103 -100 0
103 100 -97 -93 0
104 55 -98 0
-104 55 98 0
105 -55 0
-105 55 0
-106 104 0
-106 55 0
-106 -98 0
106 -104 -55 98 0
107 55 -80 0
107 -55 80 0
-107 55 80 0
-107 -55 -80 0
108 104 -84 0
108 -104 84 0
-108 104 84 0
-108 -104 -84 0
-109 55 0
-109 84 0
-109 80 -104 0
-109 -80 104 0
109 -55 80 104 -84 0
109 -55 -80 -104 -84 0
110 107 -84 0
-110 107 84 0
111 -107 0
-111 107 0
-112 107 0
-112 84 0
-112 -110 0
112 110 -107 -84 0
113 55 -107 0
113 -55 107 0
-113 55 107 0
-113 -55 -107 0
114 108 -110 0
114 -108 110 0
-114 108 110 0
-114 -108 -110 0
-115 55 0
-115 110 0
-115 107 -108 0
-115 -107 108 0
115 -55 107 108 -110 0
115 -55 -107 -108 -110 0
116 113 -110 0
-116 113 110 0
117 -113 0
-117 113 0
-118 116 0
-118 113 0
-118 -110 0
118 -116 -113 110 0
119 55 -114 0
119 -55 114 0
-119 55 114 0
-119 -55 -114 0
-120 55 0
-120 114 0
120 -55 -114 0
121 -55 119 0
-121 55 119 0
-122 119 0
121 -122 -55 0
-121 -122 55 0
121 122 55 -119 0
-121 122 -55 -119 0
-123 119 0
121 -123 55 0
-121 -123 -55 0
121 123 -55 -119 0
-121 123 55 -119 0
-124 121 0
-124 119 0
-124 -55 0
124 -121 55 -119 0
125 121 -119 0
125 -121 119 0
-125 121 119 0
-125 -121 -119 0
-126 121 0
-126 119 0
126 -121 -119 0
-97 0
-113 0
-116 0
-121 0
-125 0
-7 0
-45 0
